9
1 2 55
1 3 77
1 4 67
1 5 87
1 6 69
1 7 56
1 8 56
1 9 74
2 3 84
2 4 73
2 5 56
2 6 58
2 7 78
2 8 75
2 9 52
3 4 88
3 5 57
3 6 94
3 7 91
3 8 60
3 9 96
4 5 73
4 6 67
4 7 55
4 8 89
4 9 55
5 6 89
5 7 73
5 8 52
5 9 91
6 7 95
6 8 73
6 9 69
7 8 88
7 9 63
8 9 90
